NAME: tsp25_27
COMMENT: 25-tsp problem (Padberg/Rinaldi)
TYPE: TSP
DIMENSION: 25
EDGE_WEIGHT_TYPE : EUC_2D
NODE_COORD_SECTION
1 39 15
2 24 3
3 39 34
4 39 36
5 23 6
6 25 16
7 34 7
8 19 11
9 35 9
10 37 11
11 34 9
12 35 22
13 40 23
14 36 37
15 35 32
16 8 7
17 33 13
18 20 6
19 0 24
20 5 32
21 18 6
22 35 3
23 35 38
24 35 25
25 38 1
